[runlim] version:		1.10
[runlim] time limit:		311040000 seconds
[runlim] real time limit:	600 seconds
[runlim] space limit:		14000 MB
[runlim] argv[0]:		python3
[runlim] argv[1]:		cp.py
[runlim] argv[2]:		TUD916.4
[runlim] start:			Tue Jan 20 18:56:27 2026
[runlim] main pid:		179807
[runlim] sample:		10.0 time, 10.2 real, 610.8 MB
[runlim] sample:		20.0 time, 20.2 real, 1264.8 MB
[runlim] sample:		30.0 time, 30.2 real, 2011.0 MB
[runlim] sample:		40.0 time, 40.2 real, 2044.5 MB
[runlim] sample:		50.0 time, 50.2 real, 4755.0 MB
[runlim] sample:		60.0 time, 60.2 real, 7912.4 MB
Building CP model...
Solving CP Optimizer...
 ! --------------------------------------------------- CP Optimizer 22.1.1.0 --
 ! Minimization problem - 32780 variables, 2446924 constraints
 ! Presolve      : 2447842 extractables eliminated
 ! LogVerbosity         = Terse
 ! Initial process time : 21.75s (21.65s extraction + 0.11s propagation)
 !  . Log search space  : 32780.0 (before), 32780.0 (after)
 !  . Memory usage      : 359.7 MB (before), 359.7 MB (after)
 ! Using parallel search with 12 workers.
 ! ----------------------------------------------------------------------------
 !          Best Branches  Non-fixed    W       Branch decision
                        0      32780                 -
 + New bound is 0
[runlim] sample:		109.1 time, 70.2 real, 9927.4 MB
[runlim] end:			Tue Jan 20 18:57:42 2026
[runlim] status:		out of memory
[runlim] result:		3
[runlim] children:		571
[runlim] real:			75.66 seconds
[runlim] time:			172.56 seconds
[runlim] space:			14279.6 MB
[runlim] samples:		754
